
(set-logic ALL) 

(declare-datatype MyList ((Nil) (Cons (head Real) (tail MyList)) )) 
(declare-fun l0 () MyList) 
(declare-fun l1 () MyList) 
(declare-fun l2 () MyList) 
(declare-fun l3 () MyList) 
(declare-fun i0 () Real) 
(declare-fun i1 () Real) 
(assert (or (is-Nil Nil) (is-Cons Nil) (= l3 l2) (is-Cons Nil)) )
(assert (and (= l0 l3) (is-Cons Nil) (is-Nil l3) (= l2 Nil)) )
(assert (or (= l3 Nil) (= l1 Nil) (= l0 Nil) (= l0 l1)) )
(assert (not (is-Cons l0)) )
(assert (or (is-Cons Nil) (= l0 Nil) (= l2 Nil) (= l3 Nil)) )
(assert (is-Nil Nil) )
(assert (is-Cons Nil) )
(assert (is-Nil l1) )
(check-sat)
